lp/diabetes_160.txt.hm0.001.lp
\ENCODING=ISO-8859-1
\Problem name: SVM

Minimize
 obj: 0.001 z0 + 0.001 z1 + 0.001 z2 + 0.001 z3 + 0.001 z4 + 0.001 z5
      + 0.001 z6 + 0.001 z7 + 0.001 z8 + 0.001 z9 + 0.001 z10 + 0.001 z11
      + 0.001 z12 + 0.001 z13 + 0.001 z14 + 0.001 z15 + 0.001 z16 + 0.001 z17
      + 0.001 z18 + 0.001 z19 + 0.001 z20 + 0.001 z21 + 0.001 z22 + 0.001 z23
      + 0.001 z24 + 0.001 z25 + 0.001 z26 + 0.001 z27 + 0.001 z28 + 0.001 z29
      + 0.001 z30 + 0.001 z31 + 0.001 z32 + 0.001 z33 + 0.001 z34 + 0.001 z35
      + 0.001 z36 + 0.001 z37 + 0.001 z38 + 0.001 z39 + 0.001 z40 + 0.001 z41
      + 0.001 z42 + 0.001 z43 + 0.001 z44 + 0.001 z45 + 0.001 z46 + 0.001 z47
      + 0.001 z48 + 0.001 z49 + 0.001 z50 + 0.001 z51 + 0.001 z52 + 0.001 z53
      + 0.001 z54 + 0.001 z55 + 0.001 z56 + 0.001 z57 + 0.001 z58 + 0.001 z59
      + 0.001 z60 + 0.001 z61 + 0.001 z62 + 0.001 z63 + 0.001 z64 + 0.001 z65
      + 0.001 z66 + 0.001 z67 + 0.001 z68 + 0.001 z69 + 0.001 z70 + 0.001 z71
      + 0.001 z72 + 0.001 z73 + 0.001 z74 + 0.001 z75 + 0.001 z76 + 0.001 z77
      + 0.001 z78 + 0.001 z79 + 0.001 z80 + 0.001 z81 + 0.001 z82 + 0.001 z83
      + 0.001 z84 + 0.001 z85 + 0.001 z86 + 0.001 z87 + 0.001 z88 + 0.001 z89
      + 0.001 z90 + 0.001 z91 + 0.001 z92 + 0.001 z93 + 0.001 z94 + 0.001 z95
      + 0.001 z96 + 0.001 z97 + 0.001 z98 + 0.001 z99 + 0.001 z100 + 0.001 z101
      + 0.001 z102 + 0.001 z103 + 0.001 z104 + 0.001 z105 + 0.001 z106
      + 0.001 z107 + 0.001 z108 + 0.001 z109 + 0.001 z110 + 0.001 z111
      + 0.001 z112 + 0.001 z113 + 0.001 z114 + 0.001 z115 + 0.001 z116
      + 0.001 z117 + 0.001 z118 + 0.001 z119 + 0.001 z120 + 0.001 z121
      + 0.001 z122 + 0.001 z123 + 0.001 z124 + 0.001 z125 + 0.001 z126
      + 0.001 z127 + 0.001 z128 + 0.001 z129 + 0.001 z130 + 0.001 z131
      + 0.001 z132 + 0.001 z133 + 0.001 z134 + 0.001 z135 + 0.001 z136
      + 0.001 z137 + 0.001 z138 + 0.001 z139 + 0.001 z140 + 0.001 z141
      + 0.001 z142 + 0.001 z143 + 0.001 z144 + 0.001 z145 + 0.001 z146
      + 0.001 z147 + 0.001 z148 + 0.001 z149 + 0.001 z150 + 0.001 z151
      + 0.001 z152 + 0.001 z153 + 0.001 z154 + 0.001 z155 + 0.001 z156
      + 0.001 z157 + 0.001 z158 + 0.001 z159 + 0.001 z160 + 0.001 z161
      + 0.001 z162 + 0.001 z163 + 0.001 z164 + 0.001 z165 + 0.001 z166
      + 0.001 z167 + 0.001 z168 + 0.001 z169 + [ w0 ^2 + w1 ^2 + w2 ^2 + w3 ^2
      + w4 ^2 + w5 ^2 + w6 ^2 + w7 ^2 ] / 2
Subject To
 c1:   - 6 w0 - 148 w1 - 72 w2 - 35 w3 - 33.6 w5 - 0.627 w6 - 50 w7 - b
       + 10000 z0 >= 1
 c2:   w0 + 85 w1 + 66 w2 + 29 w3 + 26.6 w5 + 0.351 w6 + 31 w7 + b + 10000 z1
       >= 1
 c3:   - 8 w0 - 183 w1 - 64 w2 - 23.3 w5 - 0.672 w6 - 32 w7 - b + 10000 z2 >= 1
 c4:   w0 + 89 w1 + 66 w2 + 23 w3 + 94 w4 + 28.1 w5 + 0.167 w6 + 21 w7 + b
       + 10000 z3 >= 1
 c5:   - 137 w1 - 40 w2 - 35 w3 - 168 w4 - 43.1 w5 - 2.288 w6 - 33 w7 - b
       + 10000 z4 >= 1
 c6:   5 w0 + 116 w1 + 74 w2 + 25.6 w5 + 0.201 w6 + 30 w7 + b + 10000 z5 >= 1
 c7:   - 3 w0 - 78 w1 - 50 w2 - 32 w3 - 88 w4 - 31 w5 - 0.248 w6 - 26 w7 - b
       + 10000 z6 >= 1
 c8:   10 w0 + 115 w1 + 35.3 w5 + 0.134 w6 + 29 w7 + b + 10000 z7 >= 1
 c9:   - 2 w0 - 197 w1 - 70 w2 - 45 w3 - 543 w4 - 30.5 w5 - 0.158 w6 - 53 w7
       - b + 10000 z8 >= 1
 c10:  - 8 w0 - 125 w1 - 96 w2 - 0.232 w6 - 54 w7 - b + 10000 z9 >= 1
 c11:  4 w0 + 110 w1 + 92 w2 + 37.6 w5 + 0.191 w6 + 30 w7 + b + 10000 z10 >= 1
 c12:  - 10 w0 - 168 w1 - 74 w2 - 38 w5 - 0.537 w6 - 34 w7 - b + 10000 z11 >= 1
 c13:  10 w0 + 139 w1 + 80 w2 + 27.1 w5 + 1.441 w6 + 57 w7 + b + 10000 z12 >= 1
 c14:  - w0 - 189 w1 - 60 w2 - 23 w3 - 846 w4 - 30.1 w5 - 0.398 w6 - 59 w7 - b
       + 10000 z13 >= 1
 c15:  - 5 w0 - 166 w1 - 72 w2 - 19 w3 - 175 w4 - 25.8 w5 - 0.587 w6 - 51 w7
       - b + 10000 z14 >= 1
 c16:  - 7 w0 - 100 w1 - 30 w5 - 0.484 w6 - 32 w7 - b + 10000 z15 >= 1
 c17:  - 118 w1 - 84 w2 - 47 w3 - 230 w4 - 45.8 w5 - 0.551 w6 - 31 w7 - b
       + 10000 z16 >= 1
 c18:  - 7 w0 - 107 w1 - 74 w2 - 29.6 w5 - 0.254 w6 - 31 w7 - b + 10000 z17
       >= 1
 c19:  w0 + 103 w1 + 30 w2 + 38 w3 + 83 w4 + 43.3 w5 + 0.183 w6 + 33 w7 + b
       + 10000 z18 >= 1
 c20:  - w0 - 115 w1 - 70 w2 - 30 w3 - 96 w4 - 34.6 w5 - 0.529 w6 - 32 w7 - b
       + 10000 z19 >= 1
 c21:  3 w0 + 126 w1 + 88 w2 + 41 w3 + 235 w4 + 39.3 w5 + 0.704 w6 + 27 w7 + b
       + 10000 z20 >= 1
 c22:  8 w0 + 99 w1 + 84 w2 + 35.4 w5 + 0.388 w6 + 50 w7 + b + 10000 z21 >= 1
 c23:  - 7 w0 - 196 w1 - 90 w2 - 39.8 w5 - 0.451 w6 - 41 w7 - b + 10000 z22
       >= 1
 c24:  - 9 w0 - 119 w1 - 80 w2 - 35 w3 - 29 w5 - 0.263 w6 - 29 w7 - b
       + 10000 z23 >= 1
 c25:  - 11 w0 - 143 w1 - 94 w2 - 33 w3 - 146 w4 - 36.6 w5 - 0.254 w6 - 51 w7
       - b + 10000 z24 >= 1
 c26:  - 10 w0 - 125 w1 - 70 w2 - 26 w3 - 115 w4 - 31.1 w5 - 0.205 w6 - 41 w7
       - b + 10000 z25 >= 1
 c27:  - 7 w0 - 147 w1 - 76 w2 - 39.4 w5 - 0.257 w6 - 43 w7 - b + 10000 z26
       >= 1
 c28:  w0 + 97 w1 + 66 w2 + 15 w3 + 140 w4 + 23.2 w5 + 0.487 w6 + 22 w7 + b
       + 10000 z27 >= 1
 c29:  13 w0 + 145 w1 + 82 w2 + 19 w3 + 110 w4 + 22.2 w5 + 0.245 w6 + 57 w7 + b
       + 10000 z28 >= 1
 c30:  5 w0 + 117 w1 + 92 w2 + 34.1 w5 + 0.337 w6 + 38 w7 + b + 10000 z29 >= 1
 c31:  5 w0 + 109 w1 + 75 w2 + 26 w3 + 36 w5 + 0.546 w6 + 60 w7 + b + 10000 z30
       >= 1
 c32:  - 3 w0 - 158 w1 - 76 w2 - 36 w3 - 245 w4 - 31.6 w5 - 0.851 w6 - 28 w7
       - b + 10000 z31 >= 1
 c33:  3 w0 + 88 w1 + 58 w2 + 11 w3 + 54 w4 + 24.8 w5 + 0.267 w6 + 22 w7 + b
       + 10000 z32 >= 1
 c34:  6 w0 + 92 w1 + 92 w2 + 19.9 w5 + 0.188 w6 + 28 w7 + b + 10000 z33 >= 1
 c35:  10 w0 + 122 w1 + 78 w2 + 31 w3 + 27.6 w5 + 0.512 w6 + 45 w7 + b
       + 10000 z34 >= 1
 c36:  4 w0 + 103 w1 + 60 w2 + 33 w3 + 192 w4 + 24 w5 + 0.966 w6 + 33 w7 + b
       + 10000 z35 >= 1
 c37:  11 w0 + 138 w1 + 76 w2 + 33.2 w5 + 0.42 w6 + 35 w7 + b + 10000 z36 >= 1
 c38:  - 9 w0 - 102 w1 - 76 w2 - 37 w3 - 32.9 w5 - 0.665 w6 - 46 w7 - b
       + 10000 z37 >= 1
 c39:  - 2 w0 - 90 w1 - 68 w2 - 42 w3 - 38.2 w5 - 0.503 w6 - 27 w7 - b
       + 10000 z38 >= 1
 c40:  - 4 w0 - 111 w1 - 72 w2 - 47 w3 - 207 w4 - 37.1 w5 - 1.39 w6 - 56 w7 - b
       + 10000 z39 >= 1
 c41:  3 w0 + 180 w1 + 64 w2 + 25 w3 + 70 w4 + 34 w5 + 0.271 w6 + 26 w7 + b
       + 10000 z40 >= 1
 c42:  7 w0 + 133 w1 + 84 w2 + 40.2 w5 + 0.696 w6 + 37 w7 + b + 10000 z41 >= 1
 c43:  7 w0 + 106 w1 + 92 w2 + 18 w3 + 22.7 w5 + 0.235 w6 + 48 w7 + b
       + 10000 z42 >= 1
 c44:  - 9 w0 - 171 w1 - 110 w2 - 24 w3 - 240 w4 - 45.4 w5 - 0.721 w6 - 54 w7
       - b + 10000 z43 >= 1
 c45:  7 w0 + 159 w1 + 64 w2 + 27.4 w5 + 0.294 w6 + 40 w7 + b + 10000 z44 >= 1
 c46:  - 180 w1 - 66 w2 - 39 w3 - 42 w5 - 1.893 w6 - 25 w7 - b + 10000 z45 >= 1
 c47:  w0 + 146 w1 + 56 w2 + 29.7 w5 + 0.564 w6 + 29 w7 + b + 10000 z46 >= 1
 c48:  2 w0 + 71 w1 + 70 w2 + 27 w3 + 28 w5 + 0.586 w6 + 22 w7 + b + 10000 z47
       >= 1
 c49:  - 7 w0 - 103 w1 - 66 w2 - 32 w3 - 39.1 w5 - 0.344 w6 - 31 w7 - b
       + 10000 z48 >= 1
 c50:  7 w0 + 105 w1 + 0.305 w6 + 24 w7 + b + 10000 z49 >= 1
 c51:  w0 + 103 w1 + 80 w2 + 11 w3 + 82 w4 + 19.4 w5 + 0.491 w6 + 22 w7 + b
       + 10000 z50 >= 1
 c52:  w0 + 101 w1 + 50 w2 + 15 w3 + 36 w4 + 24.2 w5 + 0.526 w6 + 26 w7 + b
       + 10000 z51 >= 1
 c53:  5 w0 + 88 w1 + 66 w2 + 21 w3 + 23 w4 + 24.4 w5 + 0.342 w6 + 30 w7 + b
       + 10000 z52 >= 1
 c54:  - 8 w0 - 176 w1 - 90 w2 - 34 w3 - 300 w4 - 33.7 w5 - 0.467 w6 - 58 w7
       - b + 10000 z53 >= 1
 c55:  7 w0 + 150 w1 + 66 w2 + 42 w3 + 342 w4 + 34.7 w5 + 0.718 w6 + 42 w7 + b
       + 10000 z54 >= 1
 c56:  w0 + 73 w1 + 50 w2 + 10 w3 + 23 w5 + 0.248 w6 + 21 w7 + b + 10000 z55
       >= 1
 c57:  - 7 w0 - 187 w1 - 68 w2 - 39 w3 - 304 w4 - 37.7 w5 - 0.254 w6 - 41 w7
       - b + 10000 z56 >= 1
 c58:  100 w1 + 88 w2 + 60 w3 + 110 w4 + 46.8 w5 + 0.962 w6 + 31 w7 + b
       + 10000 z57 >= 1
 c59:  146 w1 + 82 w2 + 40.5 w5 + 1.781 w6 + 44 w7 + b + 10000 z58 >= 1
 c60:  105 w1 + 64 w2 + 41 w3 + 142 w4 + 41.5 w5 + 0.173 w6 + 22 w7 + b
       + 10000 z59 >= 1
 c61:  2 w0 + 84 w1 + 0.304 w6 + 21 w7 + b + 10000 z60 >= 1
 c62:  - 8 w0 - 133 w1 - 72 w2 - 32.9 w5 - 0.27 w6 - 39 w7 - b + 10000 z61 >= 1
 c63:  5 w0 + 44 w1 + 62 w2 + 25 w5 + 0.587 w6 + 36 w7 + b + 10000 z62 >= 1
 c64:  2 w0 + 141 w1 + 58 w2 + 34 w3 + 128 w4 + 25.4 w5 + 0.699 w6 + 24 w7 + b
       + 10000 z63 >= 1
 c65:  - 7 w0 - 114 w1 - 66 w2 - 32.8 w5 - 0.258 w6 - 42 w7 - b + 10000 z64
       >= 1
 c66:  5 w0 + 99 w1 + 74 w2 + 27 w3 + 29 w5 + 0.203 w6 + 32 w7 + b + 10000 z65
       >= 1
 c67:  - 109 w1 - 88 w2 - 30 w3 - 32.5 w5 - 0.855 w6 - 38 w7 - b + 10000 z66
       >= 1
 c68:  2 w0 + 109 w1 + 92 w2 + 42.7 w5 + 0.845 w6 + 54 w7 + b + 10000 z67 >= 1
 c69:  w0 + 95 w1 + 66 w2 + 13 w3 + 38 w4 + 19.6 w5 + 0.334 w6 + 25 w7 + b
       + 10000 z68 >= 1
 c70:  4 w0 + 146 w1 + 85 w2 + 27 w3 + 100 w4 + 28.9 w5 + 0.189 w6 + 27 w7 + b
       + 10000 z69 >= 1
 c71:  - 2 w0 - 100 w1 - 66 w2 - 20 w3 - 90 w4 - 32.9 w5 - 0.867 w6 - 28 w7 - b
       + 10000 z70 >= 1
 c72:  5 w0 + 139 w1 + 64 w2 + 35 w3 + 140 w4 + 28.6 w5 + 0.411 w6 + 26 w7 + b
       + 10000 z71 >= 1
 c73:  - 13 w0 - 126 w1 - 90 w2 - 43.4 w5 - 0.583 w6 - 42 w7 - b + 10000 z72
       >= 1
 c74:  4 w0 + 129 w1 + 86 w2 + 20 w3 + 270 w4 + 35.1 w5 + 0.231 w6 + 23 w7 + b
       + 10000 z73 >= 1
 c75:  w0 + 79 w1 + 75 w2 + 30 w3 + 32 w5 + 0.396 w6 + 22 w7 + b + 10000 z74
       >= 1
 c76:  w0 + 48 w2 + 20 w3 + 24.7 w5 + 0.14 w6 + 22 w7 + b + 10000 z75 >= 1
 c77:  7 w0 + 62 w1 + 78 w2 + 32.6 w5 + 0.391 w6 + 41 w7 + b + 10000 z76 >= 1
 c78:  5 w0 + 95 w1 + 72 w2 + 33 w3 + 37.7 w5 + 0.37 w6 + 27 w7 + b + 10000 z77
       >= 1
 c79:  - 131 w1 - 43.2 w5 - 0.27 w6 - 26 w7 - b + 10000 z78 >= 1
 c80:  2 w0 + 112 w1 + 66 w2 + 22 w3 + 25 w5 + 0.307 w6 + 24 w7 + b + 10000 z79
       >= 1
 c81:  3 w0 + 113 w1 + 44 w2 + 13 w3 + 22.4 w5 + 0.14 w6 + 22 w7 + b
       + 10000 z80 >= 1
 c82:  2 w0 + 74 w1 + 0.102 w6 + 22 w7 + b + 10000 z81 >= 1
 c83:  7 w0 + 83 w1 + 78 w2 + 26 w3 + 71 w4 + 29.3 w5 + 0.767 w6 + 36 w7 + b
       + 10000 z82 >= 1
 c84:  101 w1 + 65 w2 + 28 w3 + 24.6 w5 + 0.237 w6 + 22 w7 + b + 10000 z83 >= 1
 c85:  - 5 w0 - 137 w1 - 108 w2 - 48.8 w5 - 0.227 w6 - 37 w7 - b + 10000 z84
       >= 1
 c86:  2 w0 + 110 w1 + 74 w2 + 29 w3 + 125 w4 + 32.4 w5 + 0.698 w6 + 27 w7 + b
       + 10000 z85 >= 1
 c87:  13 w0 + 106 w1 + 72 w2 + 54 w3 + 36.6 w5 + 0.178 w6 + 45 w7 + b
       + 10000 z86 >= 1
 c88:  2 w0 + 100 w1 + 68 w2 + 25 w3 + 71 w4 + 38.5 w5 + 0.324 w6 + 26 w7 + b
       + 10000 z87 >= 1
 c89:  - 15 w0 - 136 w1 - 70 w2 - 32 w3 - 110 w4 - 37.1 w5 - 0.153 w6 - 43 w7
       - b + 10000 z88 >= 1
 c90:  w0 + 107 w1 + 68 w2 + 19 w3 + 26.5 w5 + 0.165 w6 + 24 w7 + b + 10000 z89
       >= 1
 c91:  w0 + 80 w1 + 55 w2 + 19.1 w5 + 0.258 w6 + 21 w7 + b + 10000 z90 >= 1
 c92:  4 w0 + 123 w1 + 80 w2 + 15 w3 + 176 w4 + 32 w5 + 0.443 w6 + 34 w7 + b
       + 10000 z91 >= 1
 c93:  7 w0 + 81 w1 + 78 w2 + 40 w3 + 48 w4 + 46.7 w5 + 0.261 w6 + 42 w7 + b
       + 10000 z92 >= 1
 c94:  - 4 w0 - 134 w1 - 72 w2 - 23.8 w5 - 0.277 w6 - 60 w7 - b + 10000 z93
       >= 1
 c95:  2 w0 + 142 w1 + 82 w2 + 18 w3 + 64 w4 + 24.7 w5 + 0.761 w6 + 21 w7 + b
       + 10000 z94 >= 1
 c96:  6 w0 + 144 w1 + 72 w2 + 27 w3 + 228 w4 + 33.9 w5 + 0.255 w6 + 40 w7 + b
       + 10000 z95 >= 1
 c97:  2 w0 + 92 w1 + 62 w2 + 28 w3 + 31.6 w5 + 0.13 w6 + 24 w7 + b + 10000 z96
       >= 1
 c98:  w0 + 71 w1 + 48 w2 + 18 w3 + 76 w4 + 20.4 w5 + 0.323 w6 + 22 w7 + b
       + 10000 z97 >= 1
 c99:  6 w0 + 93 w1 + 50 w2 + 30 w3 + 64 w4 + 28.7 w5 + 0.356 w6 + 23 w7 + b
       + 10000 z98 >= 1
 c100: - w0 - 122 w1 - 90 w2 - 51 w3 - 220 w4 - 49.7 w5 - 0.325 w6 - 31 w7 - b
       + 10000 z99 >= 1
 c101: - w0 - 163 w1 - 72 w2 - 39 w5 - 1.222 w6 - 33 w7 - b + 10000 z100 >= 1
 c102: w0 + 151 w1 + 60 w2 + 26.1 w5 + 0.179 w6 + 22 w7 + b + 10000 z101 >= 1
 c103: 125 w1 + 96 w2 + 22.5 w5 + 0.262 w6 + 21 w7 + b + 10000 z102 >= 1
 c104: w0 + 81 w1 + 72 w2 + 18 w3 + 40 w4 + 26.6 w5 + 0.283 w6 + 24 w7 + b
       + 10000 z103 >= 1
 c105: 2 w0 + 85 w1 + 65 w2 + 39.6 w5 + 0.93 w6 + 27 w7 + b + 10000 z104 >= 1
 c106: w0 + 126 w1 + 56 w2 + 29 w3 + 152 w4 + 28.7 w5 + 0.801 w6 + 21 w7 + b
       + 10000 z105 >= 1
 c107: w0 + 96 w1 + 122 w2 + 22.4 w5 + 0.207 w6 + 27 w7 + b + 10000 z106 >= 1
 c108: 4 w0 + 144 w1 + 58 w2 + 28 w3 + 140 w4 + 29.5 w5 + 0.287 w6 + 37 w7 + b
       + 10000 z107 >= 1
 c109: 3 w0 + 83 w1 + 58 w2 + 31 w3 + 18 w4 + 34.3 w5 + 0.336 w6 + 25 w7 + b
       + 10000 z108 >= 1
 c110: - 95 w1 - 85 w2 - 25 w3 - 36 w4 - 37.4 w5 - 0.247 w6 - 24 w7 - b
       + 10000 z109 >= 1
 c111: - 3 w0 - 171 w1 - 72 w2 - 33 w3 - 135 w4 - 33.3 w5 - 0.199 w6 - 24 w7
       - b + 10000 z110 >= 1
 c112: - 8 w0 - 155 w1 - 62 w2 - 26 w3 - 495 w4 - 34 w5 - 0.543 w6 - 46 w7 - b
       + 10000 z111 >= 1
 c113: w0 + 89 w1 + 76 w2 + 34 w3 + 37 w4 + 31.2 w5 + 0.192 w6 + 23 w7 + b
       + 10000 z112 >= 1
 c114: 4 w0 + 76 w1 + 62 w2 + 34 w5 + 0.391 w6 + 25 w7 + b + 10000 z113 >= 1
 c115: - 7 w0 - 160 w1 - 54 w2 - 32 w3 - 175 w4 - 30.5 w5 - 0.588 w6 - 39 w7
       - b + 10000 z114 >= 1
 c116: - 4 w0 - 146 w1 - 92 w2 - 31.2 w5 - 0.539 w6 - 61 w7 - b + 10000 z115
       >= 1
 c117: - 5 w0 - 124 w1 - 74 w2 - 34 w5 - 0.22 w6 - 38 w7 - b + 10000 z116 >= 1
 c118: 5 w0 + 78 w1 + 48 w2 + 33.7 w5 + 0.654 w6 + 25 w7 + b + 10000 z117 >= 1
 c119: 4 w0 + 97 w1 + 60 w2 + 23 w3 + 28.2 w5 + 0.443 w6 + 22 w7 + b
       + 10000 z118 >= 1
 c120: 4 w0 + 99 w1 + 76 w2 + 15 w3 + 51 w4 + 23.2 w5 + 0.223 w6 + 21 w7 + b
       + 10000 z119 >= 1
 c121: - 162 w1 - 76 w2 - 56 w3 - 100 w4 - 53.2 w5 - 0.759 w6 - 25 w7 - b
       + 10000 z120 >= 1
 c122: 6 w0 + 111 w1 + 64 w2 + 39 w3 + 34.2 w5 + 0.26 w6 + 24 w7 + b
       + 10000 z121 >= 1
 c123: 2 w0 + 107 w1 + 74 w2 + 30 w3 + 100 w4 + 33.6 w5 + 0.404 w6 + 23 w7 + b
       + 10000 z122 >= 1
 c124: 5 w0 + 132 w1 + 80 w2 + 26.8 w5 + 0.186 w6 + 69 w7 + b + 10000 z123 >= 1
 c125: - 113 w1 - 76 w2 - 33.3 w5 - 0.278 w6 - 23 w7 - b + 10000 z124 >= 1
 c126: - w0 - 88 w1 - 30 w2 - 42 w3 - 99 w4 - 55 w5 - 0.496 w6 - 26 w7 - b
       + 10000 z125 >= 1
 c127: 3 w0 + 120 w1 + 70 w2 + 30 w3 + 135 w4 + 42.9 w5 + 0.452 w6 + 30 w7 + b
       + 10000 z126 >= 1
 c128: w0 + 118 w1 + 58 w2 + 36 w3 + 94 w4 + 33.3 w5 + 0.261 w6 + 23 w7 + b
       + 10000 z127 >= 1
 c129: - w0 - 117 w1 - 88 w2 - 24 w3 - 145 w4 - 34.5 w5 - 0.403 w6 - 40 w7 - b
       + 10000 z128 >= 1
 c130: - 105 w1 - 84 w2 - 27.9 w5 - 0.741 w6 - 62 w7 - b + 10000 z129 >= 1
 c131: - 4 w0 - 173 w1 - 70 w2 - 14 w3 - 168 w4 - 29.7 w5 - 0.361 w6 - 33 w7
       - b + 10000 z130 >= 1
 c132: - 9 w0 - 122 w1 - 56 w2 - 33.3 w5 - 1.114 w6 - 33 w7 - b + 10000 z131
       >= 1
 c133: - 3 w0 - 170 w1 - 64 w2 - 37 w3 - 225 w4 - 34.5 w5 - 0.356 w6 - 30 w7
       - b + 10000 z132 >= 1
 c134: 8 w0 + 84 w1 + 74 w2 + 31 w3 + 38.3 w5 + 0.457 w6 + 39 w7 + b
       + 10000 z133 >= 1
 c135: 2 w0 + 96 w1 + 68 w2 + 13 w3 + 49 w4 + 21.1 w5 + 0.647 w6 + 26 w7 + b
       + 10000 z134 >= 1
 c136: 2 w0 + 125 w1 + 60 w2 + 20 w3 + 140 w4 + 33.8 w5 + 0.088 w6 + 31 w7 + b
       + 10000 z135 >= 1
 c137: 100 w1 + 70 w2 + 26 w3 + 50 w4 + 30.8 w5 + 0.597 w6 + 21 w7 + b
       + 10000 z136 >= 1
 c138: 93 w1 + 60 w2 + 25 w3 + 92 w4 + 28.7 w5 + 0.532 w6 + 22 w7 + b
       + 10000 z137 >= 1
 c139: 129 w1 + 80 w2 + 31.2 w5 + 0.703 w6 + 29 w7 + b + 10000 z138 >= 1
 c140: 5 w0 + 105 w1 + 72 w2 + 29 w3 + 325 w4 + 36.9 w5 + 0.159 w6 + 28 w7 + b
       + 10000 z139 >= 1
 c141: 3 w0 + 128 w1 + 78 w2 + 21.1 w5 + 0.268 w6 + 55 w7 + b + 10000 z140 >= 1
 c142: 5 w0 + 106 w1 + 82 w2 + 30 w3 + 39.5 w5 + 0.286 w6 + 38 w7 + b
       + 10000 z141 >= 1
 c143: 2 w0 + 108 w1 + 52 w2 + 26 w3 + 63 w4 + 32.5 w5 + 0.318 w6 + 22 w7 + b
       + 10000 z142 >= 1
 c144: - 10 w0 - 108 w1 - 66 w2 - 32.4 w5 - 0.272 w6 - 42 w7 - b + 10000 z143
       >= 1
 c145: 4 w0 + 154 w1 + 62 w2 + 31 w3 + 284 w4 + 32.8 w5 + 0.237 w6 + 23 w7 + b
       + 10000 z144 >= 1
 c146: 102 w1 + 75 w2 + 23 w3 + 0.572 w6 + 21 w7 + b + 10000 z145 >= 1
 c147: 9 w0 + 57 w1 + 80 w2 + 37 w3 + 32.8 w5 + 0.096 w6 + 41 w7 + b
       + 10000 z146 >= 1
 c148: 2 w0 + 106 w1 + 64 w2 + 35 w3 + 119 w4 + 30.5 w5 + 1.4 w6 + 34 w7 + b
       + 10000 z147 >= 1
 c149: 5 w0 + 147 w1 + 78 w2 + 33.7 w5 + 0.218 w6 + 65 w7 + b + 10000 z148 >= 1
 c150: 2 w0 + 90 w1 + 70 w2 + 17 w3 + 27.3 w5 + 0.085 w6 + 22 w7 + b
       + 10000 z149 >= 1
 c151: w0 + 136 w1 + 74 w2 + 50 w3 + 204 w4 + 37.4 w5 + 0.399 w6 + 24 w7 + b
       + 10000 z150 >= 1
 c152: 4 w0 + 114 w1 + 65 w2 + 21.9 w5 + 0.432 w6 + 37 w7 + b + 10000 z151 >= 1
 c153: - 9 w0 - 156 w1 - 86 w2 - 28 w3 - 155 w4 - 34.3 w5 - 1.189 w6 - 42 w7
       - b + 10000 z152 >= 1
 c154: w0 + 153 w1 + 82 w2 + 42 w3 + 485 w4 + 40.6 w5 + 0.687 w6 + 23 w7 + b
       + 10000 z153 >= 1
 c155: - 8 w0 - 188 w1 - 78 w2 - 47.9 w5 - 0.137 w6 - 43 w7 - b + 10000 z154
       >= 1
 c156: - 7 w0 - 152 w1 - 88 w2 - 44 w3 - 50 w5 - 0.337 w6 - 36 w7 - b
       + 10000 z155 >= 1
 c157: 2 w0 + 99 w1 + 52 w2 + 15 w3 + 94 w4 + 24.6 w5 + 0.637 w6 + 21 w7 + b
       + 10000 z156 >= 1
 c158: w0 + 109 w1 + 56 w2 + 21 w3 + 135 w4 + 25.2 w5 + 0.833 w6 + 23 w7 + b
       + 10000 z157 >= 1
 c159: 2 w0 + 88 w1 + 74 w2 + 19 w3 + 53 w4 + 29 w5 + 0.229 w6 + 22 w7 + b
       + 10000 z158 >= 1
 c160: - 17 w0 - 163 w1 - 72 w2 - 41 w3 - 114 w4 - 40.9 w5 - 0.817 w6 - 47 w7
       - b + 10000 z159 >= 1
 c161: 4 w0 + 151 w1 + 90 w2 + 38 w3 + 29.7 w5 + 0.294 w6 + 36 w7 + b
       + 10000 z160 >= 1
 c162: 7 w0 + 102 w1 + 74 w2 + 40 w3 + 105 w4 + 37.2 w5 + 0.204 w6 + 45 w7 + b
       + 10000 z161 >= 1
 c163: 114 w1 + 80 w2 + 34 w3 + 285 w4 + 44.2 w5 + 0.167 w6 + 27 w7 + b
       + 10000 z162 >= 1
 c164: 2 w0 + 100 w1 + 64 w2 + 23 w3 + 29.7 w5 + 0.368 w6 + 21 w7 + b
       + 10000 z163 >= 1
 c165: - 131 w1 - 88 w2 - 31.6 w5 - 0.743 w6 - 32 w7 - b + 10000 z164 >= 1
 c166: - 6 w0 - 104 w1 - 74 w2 - 18 w3 - 156 w4 - 29.9 w5 - 0.722 w6 - 41 w7
       - b + 10000 z165 >= 1
 c167: 3 w0 + 148 w1 + 66 w2 + 25 w3 + 32.5 w5 + 0.256 w6 + 22 w7 + b
       + 10000 z166 >= 1
 c168: 4 w0 + 120 w1 + 68 w2 + 29.6 w5 + 0.709 w6 + 34 w7 + b + 10000 z167 >= 1
 c169: 4 w0 + 110 w1 + 66 w2 + 31.9 w5 + 0.471 w6 + 29 w7 + b + 10000 z168 >= 1
 c170: 3 w0 + 111 w1 + 90 w2 + 12 w3 + 78 w4 + 28.4 w5 + 0.495 w6 + 29 w7 + b
       + 10000 z169 >= 1
Bounds
-1 <= b <= 1
 0 <= z0 <= 1
 0 <= z1 <= 1
 0 <= z2 <= 1
 0 <= z3 <= 1
 0 <= z4 <= 1
 0 <= z5 <= 1
 0 <= z6 <= 1
 0 <= z7 <= 1
 0 <= z8 <= 1
 0 <= z9 <= 1
 0 <= z10 <= 1
 0 <= z11 <= 1
 0 <= z12 <= 1
 0 <= z13 <= 1
 0 <= z14 <= 1
 0 <= z15 <= 1
 0 <= z16 <= 1
 0 <= z17 <= 1
 0 <= z18 <= 1
 0 <= z19 <= 1
 0 <= z20 <= 1
 0 <= z21 <= 1
 0 <= z22 <= 1
 0 <= z23 <= 1
 0 <= z24 <= 1
 0 <= z25 <= 1
 0 <= z26 <= 1
 0 <= z27 <= 1
 0 <= z28 <= 1
 0 <= z29 <= 1
 0 <= z30 <= 1
 0 <= z31 <= 1
 0 <= z32 <= 1
 0 <= z33 <= 1
 0 <= z34 <= 1
 0 <= z35 <= 1
 0 <= z36 <= 1
 0 <= z37 <= 1
 0 <= z38 <= 1
 0 <= z39 <= 1
 0 <= z40 <= 1
 0 <= z41 <= 1
 0 <= z42 <= 1
 0 <= z43 <= 1
 0 <= z44 <= 1
 0 <= z45 <= 1
 0 <= z46 <= 1
 0 <= z47 <= 1
 0 <= z48 <= 1
 0 <= z49 <= 1
 0 <= z50 <= 1
 0 <= z51 <= 1
 0 <= z52 <= 1
 0 <= z53 <= 1
 0 <= z54 <= 1
 0 <= z55 <= 1
 0 <= z56 <= 1
 0 <= z57 <= 1
 0 <= z58 <= 1
 0 <= z59 <= 1
 0 <= z60 <= 1
 0 <= z61 <= 1
 0 <= z62 <= 1
 0 <= z63 <= 1
 0 <= z64 <= 1
 0 <= z65 <= 1
 0 <= z66 <= 1
 0 <= z67 <= 1
 0 <= z68 <= 1
 0 <= z69 <= 1
 0 <= z70 <= 1
 0 <= z71 <= 1
 0 <= z72 <= 1
 0 <= z73 <= 1
 0 <= z74 <= 1
 0 <= z75 <= 1
 0 <= z76 <= 1
 0 <= z77 <= 1
 0 <= z78 <= 1
 0 <= z79 <= 1
 0 <= z80 <= 1
 0 <= z81 <= 1
 0 <= z82 <= 1
 0 <= z83 <= 1
 0 <= z84 <= 1
 0 <= z85 <= 1
 0 <= z86 <= 1
 0 <= z87 <= 1
 0 <= z88 <= 1
 0 <= z89 <= 1
 0 <= z90 <= 1
 0 <= z91 <= 1
 0 <= z92 <= 1
 0 <= z93 <= 1
 0 <= z94 <= 1
 0 <= z95 <= 1
 0 <= z96 <= 1
 0 <= z97 <= 1
 0 <= z98 <= 1
 0 <= z99 <= 1
 0 <= z100 <= 1
 0 <= z101 <= 1
 0 <= z102 <= 1
 0 <= z103 <= 1
 0 <= z104 <= 1
 0 <= z105 <= 1
 0 <= z106 <= 1
 0 <= z107 <= 1
 0 <= z108 <= 1
 0 <= z109 <= 1
 0 <= z110 <= 1
 0 <= z111 <= 1
 0 <= z112 <= 1
 0 <= z113 <= 1
 0 <= z114 <= 1
 0 <= z115 <= 1
 0 <= z116 <= 1
 0 <= z117 <= 1
 0 <= z118 <= 1
 0 <= z119 <= 1
 0 <= z120 <= 1
 0 <= z121 <= 1
 0 <= z122 <= 1
 0 <= z123 <= 1
 0 <= z124 <= 1
 0 <= z125 <= 1
 0 <= z126 <= 1
 0 <= z127 <= 1
 0 <= z128 <= 1
 0 <= z129 <= 1
 0 <= z130 <= 1
 0 <= z131 <= 1
 0 <= z132 <= 1
 0 <= z133 <= 1
 0 <= z134 <= 1
 0 <= z135 <= 1
 0 <= z136 <= 1
 0 <= z137 <= 1
 0 <= z138 <= 1
 0 <= z139 <= 1
 0 <= z140 <= 1
 0 <= z141 <= 1
 0 <= z142 <= 1
 0 <= z143 <= 1
 0 <= z144 <= 1
 0 <= z145 <= 1
 0 <= z146 <= 1
 0 <= z147 <= 1
 0 <= z148 <= 1
 0 <= z149 <= 1
 0 <= z150 <= 1
 0 <= z151 <= 1
 0 <= z152 <= 1
 0 <= z153 <= 1
 0 <= z154 <= 1
 0 <= z155 <= 1
 0 <= z156 <= 1
 0 <= z157 <= 1
 0 <= z158 <= 1
 0 <= z159 <= 1
 0 <= z160 <= 1
 0 <= z161 <= 1
 0 <= z162 <= 1
 0 <= z163 <= 1
 0 <= z164 <= 1
 0 <= z165 <= 1
 0 <= z166 <= 1
 0 <= z167 <= 1
 0 <= z168 <= 1
 0 <= z169 <= 1
Binaries
 z0  z1  z2  z3  z4  z5  z6  z7  z8  z9  z10  z11  z12  z13  z14  z15  z16 
 z17  z18  z19  z20  z21  z22  z23  z24  z25  z26  z27  z28  z29  z30  z31 
 z32  z33  z34  z35  z36  z37  z38  z39  z40  z41  z42  z43  z44  z45  z46 
 z47  z48  z49  z50  z51  z52  z53  z54  z55  z56  z57  z58  z59  z60  z61 
 z62  z63  z64  z65  z66  z67  z68  z69  z70  z71  z72  z73  z74  z75  z76 
 z77  z78  z79  z80  z81  z82  z83  z84  z85  z86  z87  z88  z89  z90  z91 
 z92  z93  z94  z95  z96  z97  z98  z99  z100  z101  z102  z103  z104  z105 
 z106  z107  z108  z109  z110  z111  z112  z113  z114  z115  z116  z117  z118 
 z119  z120  z121  z122  z123  z124  z125  z126  z127  z128  z129  z130  z131 
 z132  z133  z134  z135  z136  z137  z138  z139  z140  z141  z142  z143  z144 
 z145  z146  z147  z148  z149  z150  z151  z152  z153  z154  z155  z156  z157 
 z158  z159  z160  z161  z162  z163  z164  z165  z166  z167  z168  z169 
End
