wb/diabetes_160.txt.hm0.001.txt
    w:  [0.0, 0.0, 0.0, 0.0, 0.0, 0.0, 0.0, 0.0] ; b:  1.0
    time:  0.08734822273254395
